/* Objective function */
min: - 0.0054fpdi - 0.0054fpdo + 0.05apdi + 0.05apdo + 0.0002pi + 0.0002po - 0.5fsi - 0.5fso;

apdi = 0.0 hi + 0.0 li + 11.58115 ri + -0.01164 ci + -1.75878 si + 0.0 ti + 0.12327 fTempIi + 0.00305 ami + -142.82894;
asi = 0.0 hi + -0.0 li + -6e-05 ri + -8e-05 ci + -2e-05 si + 0.0 ti + -0.0001 fTempIi + 3e-05 ami + 0.01337;
aTempOi = 0.0 hi + 0.0 li + 0.28162 ri + -0.02124 ci + -0.05644 si + 0.0 ti + 0.79278 fTempIi + -0.0001 ami + 6.92585;
fpdi = 0.0 hi + 0.0 li + 25.80313 ri + -20.71926 ci + -0.05876 si + 0.0 ti + -1.34259 fTempIi + 0.0001 ami + 720.27679;
fsi = 0.0 hi + -0.0 li + -0.0 ri + -0.04666 ci + 0.0 si + 0.0 ti + 1e-05 fTempIi + -0.0 ami + 3.07316;
fTempOi = 0.0 hi + 0.0 li + -0.2781 ri + 0.02169 ci + 0.05603 si + 0.0 ti + 0.22435 fTempIi + -9e-05 ami + 9.89613;
pi = 0.0 hi + 0.0 li + 664.08333 ri + 3.33333 ci + -60.54857 si + 0.0 ti + 0.0 fTempIi + 0.0 ami + 2318.87143;

apdo = 0.0 ho + -0.0 lo + 11.71574 ro + 0.00382 co + -1.76838 so + 0.0 to + 0.10794 fTempIo + 0.00313 amo + -145.92907;
aso = 0.0 ho + 0.0 lo + 0.0 ro + -0.0 co + -0.0 so + 0.0 to + 0.0 fTempIo + 3e-05 amo + 0.00571;
aTempOo = 0.0 ho + 0.0 lo + -0.32319 ro + 0.02556 co + 0.058 so + 0.0 to + 0.74273 fTempIo + 0.0001 amo + -0.3633;
fpdo = 0.0 ho + -0.0 lo + 11.39819 ro + -6.69373 co + 0.02829 so + 0.0 to + -0.64175 fTempIo + -5e-05 amo + 322.0355;
fso = 0.0 ho + -0.0 lo + 0.0 ro + -0.02469 co + 0.0 so + 0.0 to + 0.0 fTempIo + -0.0 amo + 2.24809;
fTempOo = 0.0 ho + -0.0 lo + 0.31808 ro + -0.02537 co + -0.05694 so + 0.0 to + 0.26475 fTempIo + 9e-05 amo + 12.5942;
po = 0.0 ho + -0.0 lo + 664.09167 ro + 3.31127 co + -60.53905 so + 0.0 to + -0.0 fTempIo + -0.0 amo + 2319.33093;

/* Variable bounds */
aTempOi > 18.6;
1 =r6i + r8i + r10i + r12i + r14i;
ri =6r6i + 8r8i + 10r10i + 12r12i + 14r14i;
1 =s25i + s30i + s40i;
si =25s25i + 30s30i + 40s40i;
ti = 2;
apdi > 100;
apdi < 300;
asi > 0;
asi < 3;
aTempOi > 5;
aTempOi < 25;
fpdi > 100;
fpdi < 300;
fsi > 0;
fsi < 1.25;
fTempOi > 5;
fTempOi < 25;
pi > 0;
ri > 6;
ri < 14;
ci > 1;
ci < 38;
si > 25;
si < 60;
ti > 1;
ti < 3;
fTempIi > 5;
fTempIi < 25;

/* aTempOo < 11.4; */
1 =r6o + r8o + r10o + r12o + r14o;
ro =6r6o + 8r8o + 10r10o + 12r12o + 14r14o;
1 =s25o + s30o + s40o;
so =25s25o + 30s30o + 40s40o;
to = 2;
apdo > 100;
apdo < 300;
aso > 0;
aso < 3;
aTempOo > 5;
aTempOo < 25;
fpdo > 100;
fpdo < 300;
fso > 0;
fso < 1.25;
fTempOo > 5;
fTempOo < 25;
po > 0;
ro > 6;
ro < 14;
co > 38;
co < 60;
so > 25;
so < 60;
to > 1;
to < 3;
fTempIo > 5;
fTempIo < 25;
int hi,li,si,ti,ci,ri,ami;
int ho,lo,so,to,co,ro,amo;
bin s25i,s30i,s40i,s50i,s60i,r6i,r8i,r10i,r12i,r14i;
bin s25o,s30o,s40o,s50o,s60o,r6o,r8o,r10o,r12o,r14o;
